
 102   30
  10   10   10   10   10   10   10   10   10   10   10   10   10   10   10   10   10   10   10   10   10   10   10   10   10   10   10   10   10   10

   0   0   0   0   0   0   0   0   0   0   0   0   0   0   0   0   0   0   0   0   0   0   0   0   0   0   0   0   0   0   0  25 2 3 4 5 6 7 8 9 10 11 12 13 14 16 17 18 19 20 22 23 25 26 29 30 38 
   7   0   0   1   0   2   0   0   0   0   0   0   0   0   0   0   0   0   1   0   1   0   0   2   0   0   0   2   1   0   0  17 70 66 63 62 55 51 47 46 45 43 42 40 39 37 34 33 28 
   2   0   2   5   0   0   0   0   0   0   0   0   0   0   0   0   0   1   0   1   0   0   1   0   0   0   0   0   0   0   1  11 70 69 66 61 57 52 48 46 45 27 15 
   3   0   0   8   0   0   0   0   0   0   0   0   0   0   0   0   0   0   0   3   0   0   0   0   0   0   0   0   0   0   0   9 64 63 62 58 57 40 31 24 21 
   3   1   0   0   0   0   0   0   0   2   0   0   0   0   0   0   0   0   0   0   0   0   0   0   0   0   0   0   0   0   0  16 99 93 70 69 61 57 56 54 52 48 47 46 40 39 33 31 
   4   4   0   0   0   0   0   0   0   0   0   0   0   0   0   0   0   0   0   0   0   1   0   0   0   0   0   0   0   0   0  12 70 63 53 50 47 46 45 44 41 39 34 27 
   3   0   0   0   0   0   0   0   0   7   0   0   2   0   0   1   0   0   0   0   0   6   0   2   0   0   0   0   0   0   0  19 99 98 97 70 69 65 63 62 61 56 55 54 53 52 51 50 46 44 40 
   3   0   0   0   0   0   0   0   0   0   0   0   0   0   1   6   0   0   0   0   0   0   0   0   0   0   0   0   0   0   0  16 99 98 96 70 69 68 67 65 64 63 62 61 48 39 35 31 
   9   0   0   0   0   0   0   0   0   0   0   0   0   0  10   0   1   7   0  10   0   6   0   0   0   0   0   0   7   0   0  19 101 100 99 98 97 68 65 64 63 61 60 56 55 54 53 52 50 39 37 
   1   0   8   0   0   0   0   0   0   0   0   0   5   1   0   0   0   4   0   0   0   5   0   0   0   0   0   4   4   0   0  18 101 100 98 96 92 68 67 65 64 62 57 55 54 50 44 42 41 39 
   7   0   0   0   0   0   0   0   0   0   0   0   0   5   0   0   0   0   0   0   0   0   0   0   0   0   0   0   0   0   0  11 98 69 68 62 55 47 43 42 39 36 32 
   7   0   0   0   0   0   1   0   0   0   0   0   0   0   0   0   0   0   0   0   0   5   0   0   0   0   0   0   0   0   0  16 96 95 90 68 67 65 64 62 58 56 55 54 53 50 45 42 
   6   0   0   0   0   0   0   0   3   0   0   0   0   0   0   0   0   2   0   0   0   0   0   0   0   0   0   0   0   0   0  13 100 98 97 70 69 68 65 52 50 47 44 39 31 
   4  10   0   0   0   0   3   0   0   0   0   1   9   0   0   0   0   0   0   0   0   0   0   0   0   0   0   0   0   0   0  16 100 99 97 95 83 70 69 66 65 63 62 56 55 52 50 39 
   8   0   0   0   4   0   0   0   0   0   0   8   0   3   0   0   0   0   0   5   0   0   0   0   0   0   0   0   0   0   0  15 101 100 98 97 96 93 90 62 56 55 54 44 43 41 39 
   1   0   0   0   0   0   0   0   0   0   0   0   0   6   0   9   0   0   0   0   0   0   0   0   1   0   1   8   0   0   0  22 101 100 99 97 95 92 91 89 88 86 85 83 70 68 66 64 63 62 60 59 52 50 
   9   0   0   0   0   0   0   0   0   0   4   0  10   6   0   0   0   0   0   0   0   0   0   0   0   0   0   0   0   0   0  13 99 98 89 70 66 60 59 55 53 52 46 40 37 
   2   0   0   0   0   0   6   0   0   8   0   0   6  10   0   0   0   0   0   2   0   0   0   0   0   0   0   0   0   0   0  17 101 99 98 97 96 91 89 69 66 64 61 60 59 56 53 50 48 
  10   0   0   0   0   0   0   0   0   0   0   0   0   0   0   0   0   0   0   0   0   0   0   0   0   0   0   0   5   1   0  12 99 98 97 93 65 62 60 54 52 48 46 39 
   7   0   0   0  10   6   0   0   0   7   0   0   0   8   0   0   0   0   7   0   0   8   0   0   0   0   0   0   0   0   0  15 100 98 97 94 93 85 83 74 69 61 59 55 54 52 47 
   3   0   0   0   0   0   6   0   0   0   0   0   0   0   0   0  10   0   0   0   0   0   0   0   0   0   0   0   0   0   3  13 98 96 95 93 92 90 83 82 66 65 60 42 39 
   8   0   0   0   0   0   0   0   0   0   0   6   0   0   0   0   0   0   9   0   0   0   0   0   0   3   0   0   5   0   0  15 100 98 97 95 92 90 88 87 75 65 64 59 53 49 44 
   9   0   0   0   0   6   0   0   0   0   0   0   0   0   0   0   0   0   0   0   0   0   0   6   0   0   0   0   0   9   0  20 99 97 96 95 94 89 88 86 83 81 80 78 75 73 69 68 67 64 60 51 
   8   0   0   0   0   0   0   0   0   0   0   6   0   0   0   0   0   0   0   0   0   4   0   0   7   0   0  10   0   0   0  11 100 95 90 86 70 67 60 59 50 48 45 
   5   0   0   0   6   3   0   2   0   0   0   0   0   0   0   0   0   0   0   7   0   0   0   0   0   0   0   5  10   0   0  18 101 93 92 90 88 87 85 83 81 80 78 75 72 70 68 67 60 47 
   4   0   0   0   0   0   0  10   0   0   0   0   0   0   5   0   9   0   0   0   0   0   5   0   0   5   0   0   0   0   0   9 101 92 88 85 83 76 64 54 37 
   5   0   0   0   0   7   7   0   0   0   0   0   2   0   0   0   0   0   0   0   0   0   4   0   0   0   0  10   0   0   9  14 99 98 97 96 90 85 81 75 68 65 62 59 56 54 
   3   0   0   0   0   7   0   0   0   0   0   0   0   0   0   0   0   0   8   0   0   7   0   0   0   0   0   0   0   0   0  16 100 97 95 94 92 89 88 83 77 75 74 73 72 60 59 52 
   3   9   0  10   7   6   0   0   0   0   0   0   0   0   6   0   0   0   0   0   0   4   0   0   0   5   0   0   0   0   0  16 100 98 95 92 91 90 89 87 84 81 79 76 72 61 59 50 
   5   0   6   0   0   0   0   0   0   0   0   0   0   0   0   0   0   0   0   0   0   0   0   0   0   0   0   0   0   8   0  14 98 93 92 89 87 85 84 81 74 72 65 64 61 49 
   3   0   0   0   0   0   0   0   0   0   5   0   0   0   4   7   0   8   0   0   0   0   0   0   0   0   0   0   0   0   0  16 95 91 90 89 88 87 86 85 82 77 75 74 73 60 59 53 
  10   0   0   0   0   0   5   0   0   5   0   0   0   5   3   0   0   0   4   0   0   0   0   0   0   0   0   0   0   0   0  17 99 95 94 93 92 89 83 81 80 78 77 75 74 73 72 64 60 
   8   0   7   0   0   0   0   0   0   0   0   0   0   0   0   0   0   0   0   0   0   0   0   0   6   0   0   0   2   4   5  16 98 97 91 87 86 85 82 81 79 75 74 73 72 68 67 59 
   9   0   0   0   0   0   0   0   0   0   0   0   0   6   6   0   0   8   0   6   0   0   0   0   0   0   0   0   0   0   0  17 92 90 89 88 87 83 82 81 80 77 75 74 73 72 71 67 60 
  10   0   6   9   0   0   0   0   0   5   0   0   0   0  10   0   5   0   0   0   0   0   0   0   0   0   0   0   0   0   4  10 100 97 86 85 83 78 73 72 66 50 
   7   0   0   0   0   0   6   0   0   0   0   0   0   1   0   0   6   0   0   0   0   0   0   0   0   0   0   0   0   0   0  14 101 97 95 92 90 86 85 81 80 78 74 73 72 66 
   7   0   0   0   0   0   0   0   0   0   0   5   6   0   0   0   0   0   0   0   0   0   0   0   7   0   0   0   0   0   0  14 94 93 91 86 81 80 79 78 75 74 73 72 71 69 
   5   0   0   0   0   5   0   0   0   0   0   0   0   0   0   0   0   0   0   0   0  10   0   4   8  10   0   0   0   0   0  14 92 89 87 86 85 82 81 80 78 77 75 72 71 70 
   6   0   0   0   3   0   0   0   5   0   0   0   6   8   0   0   0   5   3   0   5   0   0   0   0   0   0   0   0   0   0  12 94 89 88 87 85 84 79 76 75 74 72 59 
   4   0   0   0   0   0   0   0   7   5   0   0   0   0   0   5   0   0   0   6   0   0   0   0   0   0   0   0  10   0   9  13 101 100 96 95 91 85 84 81 78 77 74 72 67 
   9   0   0   0  10   0   0   5   6   0   0   0   0   0   0   0   0   0   0   6   5   0   0   0   0   0   0   0   0   0   0   9 95 91 88 85 83 82 81 75 59 
   1   0   0   0   0   0   3   0   0   0   0   5   0   0   0   6   0   0   0   0   0   0   0   0   0   0   0   0   0   0   0   8 99 97 86 79 77 74 72 61 
   1   0   0   0   0   0   0   0   8   3   0   0   0   0   0   0   5   0   0   7   0   4   0   0   0   0   0   0   0   0   0   6 89 75 74 73 64 53 
   1   0   0   0   0   0   0   0   0   0   0   0   0   0   0   0   0   0   0   0   0   0   8   0   0   0   0   0   0   0   0   7 86 83 78 77 74 73 60 
   8   0  10   0   0   0   0   0   0   0   0   0   0   0   0   0   0   0   0   0   0   0   5   0   0   0   0   0   0   0   0   9 87 83 81 80 79 78 74 72 71 
   7   0   0   0   0   0   0   0   0   0   0   0   0   0   0   0   0   9   0   0   0   0   0   0   0   5   5   8   0   0   0   8 96 88 83 82 79 74 72 71 
   1   0   0   0   0   0   0   0   0   0   0   0   0   0   0   0   0   0   0   7   0   0   0   0   3   0   0   0   0   0   0   6 95 86 79 76 73 64 
   6   0   0   0   0   0   0   7   0   0   0   5   0   0   0   0   0   0   0   0   0   9   0   0  10   0   0   0   0   0   0   7 92 85 82 79 76 75 72 
   2   0   0   0   0   0   6   0   0   0   0   0   0   0   0   0   0   0   0   0   0   4   0   3   0   0   0   0   0   0   0   6 96 86 83 79 73 67 
   3   0   0   0   0   0   0   0   5   0   0   0   0   0   0   0   0   0   0   6   0   0   0   0   0   6   0   0   0   0   0   6 94 93 80 77 75 74 
   8   0   0   0   5  10   0   4   0   0   4   0   0   0   0   0   0   0   8   9   0   0   0   0   0   0   3   6   0   5   0   6 93 87 84 77 74 72 
   8   0   0   5   0   0   0   0   0   5   0   0   0   0   0   0   6   0   0   0   0   0   2   0   0   0   0   0   0   0   0   4 96 90 81 67 
   3   5   0   0   0   0   6   0   0   0   0   0   5   0   0   0   0   0   0   0   0   0   0   0   0   0   0   7   0   0   0   4 83 81 72 71 
   2   0   0   0   0   0   0   4   0   0   0   0   0   7   0   0   0   0   0   0   0   0   8   0   0   0   0   0   0   0   5   4 89 84 77 73 
   2   0   0   0   0   0   0   0   0   0   0   0   0   0   0   0   8   0   0   0   0   0   8   9   0   0   0   0   0   0   0   4 91 86 77 73 
   5   0   0   0  10   0   0   0   5   0   0   0   0   0   0   4   0   0   0   0   7   0   0  10   0   0   9   0   8   0   0   4 92 82 76 74 
   6   8   0   0   3   0   0   0   0   0   0   0   0   0   0   0   3   6   0   0   0   0   0   0   0   0   0   0   0   0   0   4 91 80 75 72 
   8   0   0   0   0   0   0   0   0   0   0   0   0   8   0   0   0   0   0   0   0   0   0   0   0   0   0   0   0   0   0   4 98 85 83 82 
   1   0   0   0   0   0   0   8   7   7   0   0   5   0   0   0   5   0   0   0   0   0   0   0   0   0  10   0   0   0   0   3 80 78 71 
   2   0   0   0   0   0   0   5   0   0   0   0   0   0   0   6   0   0   7   0   0   0   0   8   0   0   0   0   7   0   0   3 84 79 76 
   2   0   5   7   0   0   0   0   0   0   6   0   0   0   0   0   0   0   0   0   0   0   5   0   0   0   0   0   0   0   0   3 88 75 73 
   6   4   0   0   0   0   0  10   3   0   0   0   0  10   0   0   0   0   0   0   0   0   0   0   0   0   0   0   0   0   9   3 78 73 72 
   1   0   4   0   0   0   0   0   0   0   0   0   7   0   0   0   0   0   0   0   0   0   0   0   0   0   7   0   0   0   0   3 76 75 74 
   8   0   0   0   0   0   0   0   0   0   4   0   0   0   0   0   0   0   0   0   6   0   0   0   8   0   0   0   0   7   0   2 82 71 
   4   4   0   0   0   0   0   0   0   0   5   0   0   0   0   0   0   8   0   0   0   0   0   0   0   0   0   0   7   0   0   2 91 71 
   2   0   0   5   0   0   0   0   0   0   0   0   0   0   0   0   0   0   0   6   0   0   0   6   0   0   0   0   0   0   0   2 87 71 
   2   0   0   0   0   0   0   0   0   0   0   0   0   0   0   0   0   0   0   0   0   0   0   0   0   0   0   0   0   0   0   1 76 
   6   0   0   0   0   0   0   0   0   7  10   0   0   0   0   0   0   0   0   0   0   0   0   0   0   0   0   0   0   0   0   1 77 
  10   0   0   5   0   0   0   0   3   0   0   0   0   0   0   0   0   0   0   0   0   0   0   0   0   0   0   0   0   8   0   1 90 
  10   0   0   0   0   0   0   0   0   0   0   0   0   0   0   0   0   0   0   0   0   0   9   7   0   0   0   0   0   0   0   1 73 
   5   0   0   0   0   0   5   0   0   0   0   6   0   0   0   0   0   0   0   0   0   0   0   0   0   0   0   0   0   0   0   1 102
   4   0   0   0   0   0   0   0   0   0   8   0   0   0   0   0   0   0   0   0   0   0   0   0   0   0   0   0   0   0   0   1 102
   5   5   0   5   6   0   0   0   0  10   0   0   0   7   0   0   0   0   0   0   0   0   0   0   6   0   0   0   0   0   0   1 102
   2   0   5   0   0   0   0   0   0   0   0   0   0   0   8   0   0   0   0   0   0   0   0   5   0   0   8   0   0   0   0   1 102
   8   0   0   0   5   0   0   0   0   0   0   0   0   0   0   0   0   0  10   0   0   0   0   0   0   5   0   0   0   0   0   1 102
   3   0   0   0   0   0   0   0   0   0   0   0   0   0   0   0   0   6   0   0   0   0   0   0   0   0   3   0   4   0   0   1 102
   1   0   0   0   0   0   0   0   0   0   0   0   0   0   0   0   0   0   0   0   0  10   8   0   0   0   0   0   6   0   0   1 102
  10   0   0   0   6   0   0   0   0   0   0   0   0   6   0   0   0   0   0   6   0   0   5   0   0   0   0   0   0   0   0   1 102
   8   0   0   0   0   0   0   0   0   0   0   0   0   0   0   0   0   0   0   0   9   0   6   0   0   0   0   0   0   0   0   1 102
   7   0   0   0   0   0   0   5   0   0   0   0   0   0   0   0   0   0   0   8   5   5   0   0   0   0   0   0   0   0   0   1 102
  10   0   0   0   0   4   0   0   0   0   0   6   0   0   0   0   0   0   0   0   0   0   6  10   0   0   0   0   0   0   0   1 102
   8   0   0   0   0   0   0   0   0   0   0   0  10   0   9   0   8   0   0   0   0   0   0   0   0   0   0   0   0   0   0   1 102
   8   0   0   0   0   0   0   0   0   0   8   0   0   0   0   0   0   0   0   8   0   0   8   6   0   0   0   0   7   0   0   1 102
   8  10   0   4   0   0   0   0   0   4   0   0   0   0   5   0   0   0   7   0   0   0   0   0   0   0   0   0   0   0   0   1 102
  10   0   7   0   0   0   0   0   0   0   0   0   0   0   0   8   0   0   0   0   8   0   0   0   0   0   0   0   0   7   0   1 102
   7   6   0   0   0   0   0   0  10   0   0   0   0   0   0   0   0   0   0   0   0   6   0   0   4   0   0   0   0   0   0   1 102
   1   0   0   0   0   0   9   0   0   0   0   0   0   0   0   0   0   0   0   0   0   0   0   0   0   0   0   0   0   0   0   1 102
   9   0   0   0   0   0   0   0   0   0   0   0   0   0   0   0   0   0   0   0   0   6   0   0   0   0   0   0   0   0   0   1 102
   4   0   0   0   0   0   0   0   0   0   0   9   0   6   7  10   0   0   0   0   0   0   5   0   0   0   0   0   0   4   0   1 102
   8   0   0   0   0   0   0   0   0   0   0   0   0   0   6   0   0   0   0   0   0   0   0   0   0   0   0   0   0   0   0   1 102
   2   0   0   8   0   6   8   0   0   0   0   0   0   0   0   0   0   0   0   0   0   0   0   0   0  10   9   0   0   0   0   1 102
   6   0   0   5   0   7   0   0   0   0   0   0   0   0   0   0   0   8   0   0   0   8   0   0   0   0   0   0   6   0  10   1 102
   8   0   0   0   0   8   0   0   0   0   0   0   0   0   0   0   0   0   0   5   0   0   0   0   0   0   5   0   0   0   0   1 102
   3   0   0   0   0   0   0   0   0   0   0   0   0   0   0   0   0   6   0   0   5   0   9   0   0   8   0   5   7   0   0   1 102
   9   0   0   0   0   0   0   0  10   0   0   0   0   0   5   0   0   0   0   0   0   0   0   0   0   4   0   1   6   4   3   1 102
   6   0   8   0   0   0  10   0   0   0   0   0   4   0   5   4   0   0   0   0   0   0   0   0   0   0   0   0   0   0   0   1 102
   7   0   0   0   0   7   0   0   0   0   0   9   0   0   0   0   0   0   0   0   0   0   0   0   0   5   0   0   0   0   0   1 102
   6   0   4   7   0   0   0   0   0   0   0   0  10   0   0   0   0   0   0   0   7   0   0   0   0   0   0   0   0   0   8   1 102
   3   0   0   0   3   0   0   0   0   0   0   0   3   5   0   0   0   0   4   0   0   0   0   0   0   0   0   0   0   0   0   1 102
   8   0   0   0   0   0   0   0   0   9   0   0   0   0   0   0   0   0   0   0   6   0   0   0   0   0   0   0   0   9   0   1 102
   7   0   0   0   0   6   9   0   0   0   0   0   0   0   0   0   0   0   4   0   8   0   0   0   0   0   0   0   0   0   0   1 102
   0   0   0   0   0   0   0   0   0   0   0   0   0   0   0   0   0   0   0   0   0   0   0   0   0   0   0   0   0   0   0   0 
